\ Model (null)_copy
\ LP format - for model browsing. Use MPS format to capture full model detail.
Minimize
  0 X1154
Subject To
 C3: X930 + X2152 + X3374 = 1
 C642: X637 + X930 + X1223 = 1
 C925: - 1.414213562373095 X1216 - X1217 + X1222 >= 0
 C926: X2 - X1218 = 7
 C928: X1214 - X1215 - X1220 = 0
 C929: - X1214 + X1216 - 999999 X1221 >= -999999
 C930: - X1215 + X1216 + 999999 X1221 >= 0
 C932: - X951 - X961 - X971 - X1010 - X1030 - X1040 - X1079 - X1089 - X1109
   - X1148 - X1158 - X1168 - 999999 X1211 - X1212 - X1213 + X1222
   >= -999999
 C1169: - 999999 X1147 + X1148 - 1.414213562373095 X1151 - X1152
   >= -999999
 C1172: X1149 - X1150 - X1155 = 0
 C1850: X1859 + X2152 + X2445 = 1
 C2133: - 1.414213562373095 X2438 - X2439 + X2444 >= 0
 C2134: X1516 - X2440 = 7
 C2135: X1517 - X2441 = 8
 C2137: - X2436 + X2438 - 999999 X2443 >= -999999
 C2138: - X2437 + X2438 + 999999 X2443 >= 0
 C2809: X3081 + X3374 + X3667 = 1
 C3092: - 1.414213562373095 X3660 - X3661 + X3666 >= 0
 C3093: X2738 - X3662 = 7
 C3094: X2739 - X3663 = 8
 C3096: - X3658 + X3660 - 999999 X3665 >= -999999
 C3097: - X3659 + X3660 + 999999 X3665 >= 0
 C643: X627 + [ - X637 * X929 ] = 0
 C924: X627 + [ - X930 * X1222 ] = 0
 C931: - X1211 + [ X935 * X980 + X1004 * X1049 + X1073 * X1118
   + X1142 * X1187 ] = 0
 C1100: X1073 - X1119 + [ - X935 * X1078 - X1004 * X1088 - X1108 * X1142 ]
   = 0
 C1164: X1142 - X1188 + [ - X935 * X1147 - X1004 * X1157 - X1073 * X1167 ]
   = 0
 C1851: X1850 + [ - X1859 * X2151 ] = 0
 C2132: X1850 + [ - X2152 * X2444 ] = 0
 C2810: X3072 + [ - X3081 * X3373 ] = 0
 C3091: X3072 + [ - X3374 * X3666 ] = 0
Bounds
 -infinity <= X2 <= 3
 X627 free
 X929 free
 X951 free
 X961 free
 X971 free
 X1010 free
 X1030 free
 X1040 free
 X1079 free
 X1089 free
 X1109 free
 X1148 free
 X1149 free
 X1150 free
 X1151 free
 X1152 free
 X1154 free
 X1155 free
 X1158 free
 X1168 free
 X1212 free
 X1213 free
 X1214 free
 X1216 free
 X1217 free
 X1218 free
 X1220 free
 X1222 free
 -infinity <= X1516 <= 3
 -infinity <= X1517 <= 4
 X1850 free
 X2151 free
 X2436 free
 X2437 free
 X2438 free
 X2440 free
 X2441 free
 X2444 free
 -infinity <= X2738 <= 3
 -infinity <= X2739 <= 4
 X3072 free
 X3373 free
 X3658 free
 X3659 free
 X3660 free
 X3662 free
 X3663 free
 X3666 free
Binaries
 X637 X930 X935 X980 X1004 X1049 X1073 X1078 X1088 X1108 X1118 X1119 X1142
 X1147 X1157 X1167 X1187 X1188 X1211 X1221 X1223 X1859 X2152 X2443 X2445
 X3081 X3374 X3665 X3667
Generals
 X2 X1149 X1150 X1151 X1152 X1154 X1155 X1214 X1215 X1216 X1217 X1218 X1220
 X1516 X1517 X2436 X2437 X2438 X2439 X2440 X2441 X2738 X2739 X3658 X3659
 X3660 X3661 X3662 X3663
General Constraints
 |vi.x-sj.x|v0->s2: X1214 = ABS ( X1218 )
 ||vi.x-sj.x|-|vi.y-sj.y||v0->s2: X1217 = ABS ( X1220 )
 v0s2o4->o1d_i_sj_omOn_absY: X1150 = ABS ( X1154 )
 v0s2o4->o1d_i_sj_omOn_absXY: X1152 = ABS ( X1155 )
 |vi.x-sj.x|v1->s2: X2436 = ABS ( X2440 )
 |vi.y-sj.y|v1->s2: X2437 = ABS ( X2441 )
 |vi.x-sj.x|v2->s2: X3658 = ABS ( X3662 )
 |vi.y-sj.y|v2->s2: X3659 = ABS ( X3663 )
End
